% Logging successfully configured
%%%mzn-stat: initTime=0.022361602
%%%mzn-stat: objective=502
%%%mzn-stat: nodes=4981
%%%mzn-stat: restarts=0
%%%mzn-stat: peakDepth=639
%%%mzn-stat: solveTime=0.156636521
%%%mzn-stat: variables=1162
%%%mzn-stat: propagators=853
%%%mzn-stat: failures=456
%%%mzn-stat: propagations=34092
%%%mzn-stat: nogoods=456
%%%mzn-stat: numAtomicConstraintsPropagated=0
%%%mzn-stat: allDifferentNumber1TotalHallSetSize=5015
%%%mzn-stat: allDifferentNumber1NumberOfConflicts=447
%%%mzn-stat: allDifferentNumber1MaxHallSetSize=44
%%%mzn-stat: allDifferentNumber1PropagationsTotal=7065
%%%mzn-stat: allDifferentNumber1PropagationsThatFoundConflict=447
%%%mzn-stat: circuitNumber2PropagationsThatFoundConflict=5
%%%mzn-stat: circuitNumber2TotalFixedEdgesAtConflict=214
%%%mzn-stat: circuitNumber2NumberOfConflicts=5
%%%mzn-stat: circuitNumber2PropagationsThatPruned=125
%%%mzn-stat: circuitNumber2PropagationsTotal=4307
%%%mzn-stat: AverageConflictSize=10.578947368421053
%%%mzn-stat: NumUnitNogoodsLearned=0
%%%mzn-stat: AverageLearnedNogoodLength=13.269736842105264
%%%mzn-stat: AverageBacktrackAmount=0
%%%mzn-stat: AverageLbd=12.43859649122807
%%%mzn-stat: 2AutonomousSearchNumBackupCalled=600
%%%mzn-stat: 2AutonomousSearchNumPredicatesRemoved=0
%%%mzn-stat: 2AutonomousSearchNumCalls=601
%%%mzn-stat: 2AutonomousSearchNumPredicatesAdded=715
%%%mzn-stat: 2AutonomousSearchAverageSizeOfHeap=1.1896838602329451
%%%mzn-stat: 2AutonomousSearchNumAssignedPredicatesEncountered=715
%%%mzn-stat-end
maxleg = 502;
succ = array1d(1..50,[4, 5, 8, 10, 1, 9, 2, 11, 18, 13, 15, 14, 20, 7, 16, 17, 27, 22, 3, 19, 25, 12, 24, 6, 26, 30, 28, 32, 36, 29, 39, 42, 31, 23, 34, 46, 38, 41, 44, 45, 43, 33, 21, 50, 35, 48, 37, 40, 47, 49]);
% time elapsed: 3.17 s
----------
%%%mzn-stat: initTime=0.022361602
%%%mzn-stat: objective=364
%%%mzn-stat: nodes=5865
%%%mzn-stat: restarts=0
%%%mzn-stat: peakDepth=639
%%%mzn-stat: solveTime=0.17107711
%%%mzn-stat: variables=1162
%%%mzn-stat: propagators=853
%%%mzn-stat: failures=485
%%%mzn-stat: propagations=38175
%%%mzn-stat: nogoods=485
%%%mzn-stat: numAtomicConstraintsPropagated=0
%%%mzn-stat: allDifferentNumber1TotalHallSetSize=5282
%%%mzn-stat: allDifferentNumber1NumberOfConflicts=476
%%%mzn-stat: allDifferentNumber1MaxHallSetSize=44
%%%mzn-stat: allDifferentNumber1PropagationsTotal=7663
%%%mzn-stat: allDifferentNumber1PropagationsThatFoundConflict=476
%%%mzn-stat: circuitNumber2PropagationsThatFoundConflict=5
%%%mzn-stat: circuitNumber2TotalFixedEdgesAtConflict=214
%%%mzn-stat: circuitNumber2NumberOfConflicts=5
%%%mzn-stat: circuitNumber2PropagationsThatPruned=154
%%%mzn-stat: circuitNumber2PropagationsTotal=4681
%%%mzn-stat: AverageConflictSize=10.536082474226804
%%%mzn-stat: NumUnitNogoodsLearned=0
%%%mzn-stat: AverageLearnedNogoodLength=13.14020618556701
%%%mzn-stat: AverageBacktrackAmount=0
%%%mzn-stat: AverageLbd=12.296907216494846
%%%mzn-stat: 2AutonomousSearchNumBackupCalled=1147
%%%mzn-stat: 2AutonomousSearchNumPredicatesRemoved=0
%%%mzn-stat: 2AutonomousSearchNumCalls=1149
%%%mzn-stat: 2AutonomousSearchNumPredicatesAdded=928
%%%mzn-stat: 2AutonomousSearchAverageSizeOfHeap=1.2915578764142732
%%%mzn-stat: 2AutonomousSearchNumAssignedPredicatesEncountered=1484
%%%mzn-stat-end
maxleg = 364;
succ = array1d(1..50,[4, 5, 8, 10, 1, 9, 2, 11, 18, 13, 15, 14, 20, 7, 16, 17, 27, 22, 3, 19, 25, 12, 24, 6, 26, 30, 29, 32, 36, 23, 39, 42, 31, 35, 43, 46, 21, 28, 44, 45, 38, 33, 41, 50, 34, 48, 37, 40, 47, 49]);
% time elapsed: 3.20 s
----------
%%%mzn-stat: initTime=0.022361602
%%%mzn-stat: objective=362
%%%mzn-stat: nodes=7323
%%%mzn-stat: restarts=0
%%%mzn-stat: peakDepth=639
%%%mzn-stat: solveTime=0.202131151
%%%mzn-stat: variables=1162
%%%mzn-stat: propagators=853
%%%mzn-stat: failures=601
%%%mzn-stat: propagations=47926
%%%mzn-stat: nogoods=601
%%%mzn-stat: numAtomicConstraintsPropagated=0
%%%mzn-stat: allDifferentNumber1TotalHallSetSize=6308
%%%mzn-stat: allDifferentNumber1NumberOfConflicts=590
%%%mzn-stat: allDifferentNumber1MaxHallSetSize=44
%%%mzn-stat: allDifferentNumber1PropagationsTotal=9096
%%%mzn-stat: allDifferentNumber1PropagationsThatFoundConflict=590
%%%mzn-stat: circuitNumber2PropagationsThatFoundConflict=6
%%%mzn-stat: circuitNumber2TotalFixedEdgesAtConflict=260
%%%mzn-stat: circuitNumber2NumberOfConflicts=6
%%%mzn-stat: circuitNumber2PropagationsThatPruned=173
%%%mzn-stat: circuitNumber2PropagationsTotal=5587
%%%mzn-stat: AverageConflictSize=10.955074875207986
%%%mzn-stat: NumUnitNogoodsLearned=0
%%%mzn-stat: AverageLearnedNogoodLength=13.289517470881863
%%%mzn-stat: AverageBacktrackAmount=0
%%%mzn-stat: AverageLbd=11.602329450915141
%%%mzn-stat: 2AutonomousSearchNumBackupCalled=1678
%%%mzn-stat: 2AutonomousSearchNumPredicatesRemoved=0
%%%mzn-stat: 2AutonomousSearchNumCalls=1681
%%%mzn-stat: 2AutonomousSearchNumPredicatesAdded=1250
%%%mzn-stat: 2AutonomousSearchAverageSizeOfHeap=1.414039262343843
%%%mzn-stat: 2AutonomousSearchNumAssignedPredicatesEncountered=2377
%%%mzn-stat-end
maxleg = 362;
succ = array1d(1..50,[4, 5, 8, 10, 1, 9, 2, 11, 18, 13, 15, 14, 20, 7, 16, 19, 3, 22, 28, 25, 37, 12, 24, 6, 21, 30, 17, 38, 36, 29, 33, 42, 32, 23, 26, 46, 39, 41, 44, 45, 43, 27, 35, 47, 34, 48, 49, 40, 50, 31]);
% time elapsed: 3.22 s
----------
%%%mzn-stat: initTime=0.022361602
%%%mzn-stat: objective=333
%%%mzn-stat: nodes=8461
%%%mzn-stat: restarts=0
%%%mzn-stat: peakDepth=639
%%%mzn-stat: solveTime=0.221082589
%%%mzn-stat: variables=1162
%%%mzn-stat: propagators=853
%%%mzn-stat: failures=649
%%%mzn-stat: propagations=55310
%%%mzn-stat: nogoods=649
%%%mzn-stat: numAtomicConstraintsPropagated=0
%%%mzn-stat: allDifferentNumber1TotalHallSetSize=6482
%%%mzn-stat: allDifferentNumber1NumberOfConflicts=638
%%%mzn-stat: allDifferentNumber1MaxHallSetSize=44
%%%mzn-stat: allDifferentNumber1PropagationsTotal=10053
%%%mzn-stat: allDifferentNumber1PropagationsThatFoundConflict=638
%%%mzn-stat: circuitNumber2PropagationsThatFoundConflict=6
%%%mzn-stat: circuitNumber2TotalFixedEdgesAtConflict=260
%%%mzn-stat: circuitNumber2NumberOfConflicts=6
%%%mzn-stat: circuitNumber2PropagationsThatPruned=235
%%%mzn-stat: circuitNumber2PropagationsTotal=6255
%%%mzn-stat: AverageConflictSize=10.557781201848998
%%%mzn-stat: NumUnitNogoodsLearned=0
%%%mzn-stat: AverageLearnedNogoodLength=12.816640986132512
%%%mzn-stat: AverageBacktrackAmount=0
%%%mzn-stat: AverageLbd=11.112480739599384
%%%mzn-stat: 2AutonomousSearchNumBackupCalled=2165
%%%mzn-stat: 2AutonomousSearchNumPredicatesRemoved=0
%%%mzn-stat: 2AutonomousSearchNumCalls=2169
%%%mzn-stat: 2AutonomousSearchNumPredicatesAdded=1410
%%%mzn-stat: 2AutonomousSearchAverageSizeOfHeap=1.524204702627939
%%%mzn-stat: 2AutonomousSearchNumAssignedPredicatesEncountered=3306
%%%mzn-stat-end
maxleg = 333;
succ = array1d(1..50,[4, 5, 8, 10, 1, 9, 2, 11, 18, 21, 15, 14, 20, 7, 13, 3, 27, 22, 16, 25, 37, 12, 24, 6, 26, 30, 29, 19, 36, 23, 33, 17, 42, 35, 43, 46, 38, 39, 44, 45, 47, 32, 41, 49, 34, 48, 28, 40, 50, 31]);
% time elapsed: 3.24 s
----------
%%%mzn-stat: initTime=0.022361602
%%%mzn-stat: objective=331
%%%mzn-stat: nodes=8994
%%%mzn-stat: restarts=0
%%%mzn-stat: peakDepth=639
%%%mzn-stat: solveTime=0.223989057
%%%mzn-stat: variables=1162
%%%mzn-stat: propagators=853
%%%mzn-stat: failures=658
%%%mzn-stat: propagations=56890
%%%mzn-stat: nogoods=658
%%%mzn-stat: numAtomicConstraintsPropagated=0
%%%mzn-stat: allDifferentNumber1TotalHallSetSize=6585
%%%mzn-stat: allDifferentNumber1NumberOfConflicts=647
%%%mzn-stat: allDifferentNumber1MaxHallSetSize=44
%%%mzn-stat: allDifferentNumber1PropagationsTotal=10133
%%%mzn-stat: allDifferentNumber1PropagationsThatFoundConflict=647
%%%mzn-stat: circuitNumber2PropagationsThatFoundConflict=6
%%%mzn-stat: circuitNumber2TotalFixedEdgesAtConflict=260
%%%mzn-stat: circuitNumber2NumberOfConflicts=6
%%%mzn-stat: circuitNumber2PropagationsThatPruned=239
%%%mzn-stat: circuitNumber2PropagationsTotal=6300
%%%mzn-stat: AverageConflictSize=10.671732522796352
%%%mzn-stat: NumUnitNogoodsLearned=0
%%%mzn-stat: AverageLearnedNogoodLength=12.902735562310031
%%%mzn-stat: AverageBacktrackAmount=0
%%%mzn-stat: AverageLbd=11.077507598784194
%%%mzn-stat: 2AutonomousSearchNumBackupCalled=2650
%%%mzn-stat: 2AutonomousSearchNumPredicatesRemoved=0
%%%mzn-stat: 2AutonomousSearchNumCalls=2655
%%%mzn-stat: 2AutonomousSearchNumPredicatesAdded=1489
%%%mzn-stat: 2AutonomousSearchAverageSizeOfHeap=1.6048964218455744
%%%mzn-stat: 2AutonomousSearchNumAssignedPredicatesEncountered=4261
%%%mzn-stat-end
maxleg = 331;
succ = array1d(1..50,[4, 5, 8, 10, 1, 9, 2, 11, 18, 21, 15, 14, 20, 7, 13, 3, 27, 22, 16, 25, 37, 12, 24, 6, 26, 30, 29, 19, 36, 23, 50, 17, 42, 35, 43, 46, 38, 39, 44, 45, 47, 32, 41, 49, 34, 48, 28, 40, 31, 33]);
% time elapsed: 3.25 s
----------
%%%mzn-stat: initTime=0.022361602
%%%mzn-stat: objective=319
%%%mzn-stat: nodes=9704
%%%mzn-stat: restarts=0
%%%mzn-stat: peakDepth=639
%%%mzn-stat: solveTime=0.232317826
%%%mzn-stat: variables=1162
%%%mzn-stat: propagators=853
%%%mzn-stat: failures=678
%%%mzn-stat: propagations=60666
%%%mzn-stat: nogoods=678
%%%mzn-stat: numAtomicConstraintsPropagated=0
%%%mzn-stat: allDifferentNumber1TotalHallSetSize=6825
%%%mzn-stat: allDifferentNumber1NumberOfConflicts=667
%%%mzn-stat: allDifferentNumber1MaxHallSetSize=44
%%%mzn-stat: allDifferentNumber1PropagationsTotal=10499
%%%mzn-stat: allDifferentNumber1PropagationsThatFoundConflict=667
%%%mzn-stat: circuitNumber2PropagationsThatFoundConflict=6
%%%mzn-stat: circuitNumber2TotalFixedEdgesAtConflict=260
%%%mzn-stat: circuitNumber2NumberOfConflicts=6
%%%mzn-stat: circuitNumber2PropagationsThatPruned=269
%%%mzn-stat: circuitNumber2PropagationsTotal=6549
%%%mzn-stat: AverageConflictSize=10.830383480825958
%%%mzn-stat: NumUnitNogoodsLearned=0
%%%mzn-stat: AverageLearnedNogoodLength=13.001474926253687
%%%mzn-stat: AverageBacktrackAmount=0
%%%mzn-stat: AverageLbd=11.00589970501475
%%%mzn-stat: 2AutonomousSearchNumBackupCalled=3133
%%%mzn-stat: 2AutonomousSearchNumPredicatesRemoved=0
%%%mzn-stat: 2AutonomousSearchNumCalls=3139
%%%mzn-stat: 2AutonomousSearchNumPredicatesAdded=1654
%%%mzn-stat: 2AutonomousSearchAverageSizeOfHeap=1.678560050971647
%%%mzn-stat: 2AutonomousSearchNumAssignedPredicatesEncountered=5269
%%%mzn-stat-end
maxleg = 319;
succ = array1d(1..50,[4, 5, 8, 10, 1, 9, 2, 11, 18, 21, 15, 14, 20, 7, 13, 3, 27, 22, 16, 25, 37, 12, 24, 6, 26, 30, 36, 19, 46, 23, 50, 17, 42, 35, 43, 29, 38, 39, 44, 45, 47, 32, 41, 49, 34, 48, 28, 40, 31, 33]);
% time elapsed: 3.26 s
----------
%%%mzn-stat: initTime=0.022361602
%%%mzn-stat: objective=315
%%%mzn-stat: nodes=10372
%%%mzn-stat: restarts=0
%%%mzn-stat: peakDepth=639
%%%mzn-stat: solveTime=0.239601025
%%%mzn-stat: variables=1162
%%%mzn-stat: propagators=853
%%%mzn-stat: failures=708
%%%mzn-stat: propagations=63898
%%%mzn-stat: nogoods=708
%%%mzn-stat: numAtomicConstraintsPropagated=0
%%%mzn-stat: allDifferentNumber1TotalHallSetSize=7013
%%%mzn-stat: allDifferentNumber1NumberOfConflicts=697
%%%mzn-stat: allDifferentNumber1MaxHallSetSize=44
%%%mzn-stat: allDifferentNumber1PropagationsTotal=10856
%%%mzn-stat: allDifferentNumber1PropagationsThatFoundConflict=697
%%%mzn-stat: circuitNumber2PropagationsThatFoundConflict=6
%%%mzn-stat: circuitNumber2TotalFixedEdgesAtConflict=260
%%%mzn-stat: circuitNumber2NumberOfConflicts=6
%%%mzn-stat: circuitNumber2PropagationsThatPruned=282
%%%mzn-stat: circuitNumber2PropagationsTotal=6742
%%%mzn-stat: AverageConflictSize=10.806497175141242
%%%mzn-stat: NumUnitNogoodsLearned=0
%%%mzn-stat: AverageLearnedNogoodLength=12.899717514124294
%%%mzn-stat: AverageBacktrackAmount=0
%%%mzn-stat: AverageLbd=10.77683615819209
%%%mzn-stat: 2AutonomousSearchNumBackupCalled=3604
%%%mzn-stat: 2AutonomousSearchNumPredicatesRemoved=0
%%%mzn-stat: 2AutonomousSearchNumCalls=3611
%%%mzn-stat: 2AutonomousSearchNumPredicatesAdded=1845
%%%mzn-stat: 2AutonomousSearchAverageSizeOfHeap=1.7518692882857934
%%%mzn-stat: 2AutonomousSearchNumAssignedPredicatesEncountered=6326
%%%mzn-stat-end
maxleg = 315;
succ = array1d(1..50,[4, 5, 8, 10, 1, 9, 2, 11, 18, 21, 15, 14, 20, 7, 13, 3, 27, 22, 16, 25, 41, 12, 24, 6, 28, 30, 36, 32, 46, 23, 33, 42, 50, 26, 43, 29, 38, 39, 31, 45, 47, 17, 34, 37, 35, 48, 49, 40, 44, 19]);
% time elapsed: 3.26 s
----------
%%%mzn-stat: initTime=0.022361602
%%%mzn-stat: objective=310
%%%mzn-stat: nodes=10919
%%%mzn-stat: restarts=0
%%%mzn-stat: peakDepth=639
%%%mzn-stat: solveTime=0.243223558
%%%mzn-stat: variables=1162
%%%mzn-stat: propagators=853
%%%mzn-stat: failures=712
%%%mzn-stat: propagations=65919
%%%mzn-stat: nogoods=712
%%%mzn-stat: numAtomicConstraintsPropagated=0
%%%mzn-stat: allDifferentNumber1TotalHallSetSize=7019
%%%mzn-stat: allDifferentNumber1NumberOfConflicts=700
%%%mzn-stat: allDifferentNumber1MaxHallSetSize=44
%%%mzn-stat: allDifferentNumber1PropagationsTotal=10989
%%%mzn-stat: allDifferentNumber1PropagationsThatFoundConflict=700
%%%mzn-stat: circuitNumber2PropagationsThatFoundConflict=7
%%%mzn-stat: circuitNumber2TotalFixedEdgesAtConflict=300
%%%mzn-stat: circuitNumber2NumberOfConflicts=7
%%%mzn-stat: circuitNumber2PropagationsThatPruned=291
%%%mzn-stat: circuitNumber2PropagationsTotal=6820
%%%mzn-stat: AverageConflictSize=10.757022471910112
%%%mzn-stat: NumUnitNogoodsLearned=0
%%%mzn-stat: AverageLearnedNogoodLength=12.853932584269662
%%%mzn-stat: AverageBacktrackAmount=0
%%%mzn-stat: AverageLbd=10.735955056179776
%%%mzn-stat: 2AutonomousSearchNumBackupCalled=4080
%%%mzn-stat: 2AutonomousSearchNumPredicatesRemoved=0
%%%mzn-stat: 2AutonomousSearchNumCalls=4088
%%%mzn-stat: 2AutonomousSearchNumPredicatesAdded=1885
%%%mzn-stat: 2AutonomousSearchAverageSizeOfHeap=1.8091976516634052
%%%mzn-stat: 2AutonomousSearchNumAssignedPredicatesEncountered=7396
%%%mzn-stat-end
maxleg = 310;
succ = array1d(1..50,[4, 5, 8, 10, 1, 9, 2, 11, 18, 21, 15, 14, 20, 7, 13, 3, 27, 22, 16, 25, 41, 12, 24, 6, 28, 30, 36, 32, 46, 23, 33, 42, 50, 35, 43, 29, 38, 39, 31, 45, 47, 17, 26, 37, 34, 48, 49, 40, 44, 19]);
% time elapsed: 3.28 s
----------
%%%mzn-stat: initTime=0.022361602
%%%mzn-stat: objective=308
%%%mzn-stat: nodes=11506
%%%mzn-stat: restarts=0
%%%mzn-stat: peakDepth=639
%%%mzn-stat: solveTime=0.248306633
%%%mzn-stat: variables=1162
%%%mzn-stat: propagators=853
%%%mzn-stat: failures=728
%%%mzn-stat: propagations=68781
%%%mzn-stat: nogoods=728
%%%mzn-stat: numAtomicConstraintsPropagated=0
%%%mzn-stat: allDifferentNumber1TotalHallSetSize=7136
%%%mzn-stat: allDifferentNumber1NumberOfConflicts=716
%%%mzn-stat: allDifferentNumber1MaxHallSetSize=44
%%%mzn-stat: allDifferentNumber1PropagationsTotal=11214
%%%mzn-stat: allDifferentNumber1PropagationsThatFoundConflict=716
%%%mzn-stat: circuitNumber2PropagationsThatFoundConflict=7
%%%mzn-stat: circuitNumber2TotalFixedEdgesAtConflict=300
%%%mzn-stat: circuitNumber2NumberOfConflicts=7
%%%mzn-stat: circuitNumber2PropagationsThatPruned=302
%%%mzn-stat: circuitNumber2PropagationsTotal=6950
%%%mzn-stat: AverageConflictSize=10.784340659340659
%%%mzn-stat: NumUnitNogoodsLearned=0
%%%mzn-stat: AverageLearnedNogoodLength=12.853021978021978
%%%mzn-stat: AverageBacktrackAmount=0
%%%mzn-stat: AverageLbd=10.630494505494505
%%%mzn-stat: 2AutonomousSearchNumBackupCalled=4542
%%%mzn-stat: 2AutonomousSearchNumPredicatesRemoved=0
%%%mzn-stat: 2AutonomousSearchNumCalls=4551
%%%mzn-stat: 2AutonomousSearchNumPredicatesAdded=2024
%%%mzn-stat: 2AutonomousSearchAverageSizeOfHeap=1.8604702263238848
%%%mzn-stat: 2AutonomousSearchNumAssignedPredicatesEncountered=8467
%%%mzn-stat-end
maxleg = 308;
succ = array1d(1..50,[4, 5, 8, 10, 1, 9, 2, 11, 18, 21, 15, 14, 20, 7, 13, 3, 27, 22, 16, 28, 41, 12, 24, 6, 26, 30, 36, 32, 46, 23, 33, 42, 50, 35, 43, 29, 38, 39, 31, 45, 47, 17, 25, 37, 34, 48, 49, 40, 44, 19]);
% time elapsed: 3.28 s
----------
%%%mzn-stat: initTime=0.022361602
%%%mzn-stat: objective=303
%%%mzn-stat: nodes=12074
%%%mzn-stat: restarts=0
%%%mzn-stat: peakDepth=639
%%%mzn-stat: solveTime=0.253593145
%%%mzn-stat: variables=1162
%%%mzn-stat: propagators=853
%%%mzn-stat: failures=747
%%%mzn-stat: propagations=71495
%%%mzn-stat: nogoods=747
%%%mzn-stat: numAtomicConstraintsPropagated=0
%%%mzn-stat: allDifferentNumber1TotalHallSetSize=7306
%%%mzn-stat: allDifferentNumber1NumberOfConflicts=735
%%%mzn-stat: allDifferentNumber1MaxHallSetSize=44
%%%mzn-stat: allDifferentNumber1PropagationsTotal=11434
%%%mzn-stat: allDifferentNumber1PropagationsThatFoundConflict=735
%%%mzn-stat: circuitNumber2PropagationsThatFoundConflict=7
%%%mzn-stat: circuitNumber2TotalFixedEdgesAtConflict=300
%%%mzn-stat: circuitNumber2NumberOfConflicts=7
%%%mzn-stat: circuitNumber2PropagationsThatPruned=316
%%%mzn-stat: circuitNumber2PropagationsTotal=7070
%%%mzn-stat: AverageConflictSize=10.923694779116467
%%%mzn-stat: NumUnitNogoodsLearned=0
%%%mzn-stat: AverageLearnedNogoodLength=12.92904953145917
%%%mzn-stat: AverageBacktrackAmount=0
%%%mzn-stat: AverageLbd=10.532797858099062
%%%mzn-stat: 2AutonomousSearchNumBackupCalled=4986
%%%mzn-stat: 2AutonomousSearchNumPredicatesRemoved=0
%%%mzn-stat: 2AutonomousSearchNumCalls=4996
%%%mzn-stat: 2AutonomousSearchNumPredicatesAdded=2084
%%%mzn-stat: 2AutonomousSearchAverageSizeOfHeap=1.9095276220976782
%%%mzn-stat: 2AutonomousSearchNumAssignedPredicatesEncountered=9540
%%%mzn-stat-end
maxleg = 303;
succ = array1d(1..50,[4, 5, 8, 10, 1, 9, 2, 11, 18, 21, 15, 14, 20, 7, 13, 3, 27, 22, 16, 28, 41, 12, 24, 6, 37, 30, 36, 25, 46, 23, 50, 17, 42, 35, 43, 29, 38, 39, 31, 45, 47, 32, 26, 19, 34, 48, 49, 40, 44, 33]);
% time elapsed: 3.29 s
----------
%%%mzn-stat: initTime=0.022361602
%%%mzn-stat: objective=289
%%%mzn-stat: nodes=13211
%%%mzn-stat: restarts=0
%%%mzn-stat: peakDepth=639
%%%mzn-stat: solveTime=0.277075155
%%%mzn-stat: variables=1162
%%%mzn-stat: propagators=853
%%%mzn-stat: failures=889
%%%mzn-stat: propagations=81501
%%%mzn-stat: nogoods=889
%%%mzn-stat: numAtomicConstraintsPropagated=0
%%%mzn-stat: allDifferentNumber1TotalHallSetSize=7792
%%%mzn-stat: allDifferentNumber1NumberOfConflicts=861
%%%mzn-stat: allDifferentNumber1MaxHallSetSize=44
%%%mzn-stat: allDifferentNumber1PropagationsTotal=12657
%%%mzn-stat: allDifferentNumber1PropagationsThatFoundConflict=861
%%%mzn-stat: circuitNumber2PropagationsThatFoundConflict=21
%%%mzn-stat: circuitNumber2TotalFixedEdgesAtConflict=952
%%%mzn-stat: circuitNumber2NumberOfConflicts=21
%%%mzn-stat: circuitNumber2PropagationsThatPruned=450
%%%mzn-stat: circuitNumber2PropagationsTotal=7844
%%%mzn-stat: AverageConflictSize=10.201349831271092
%%%mzn-stat: NumUnitNogoodsLearned=0
%%%mzn-stat: AverageLearnedNogoodLength=12.200224971878516
%%%mzn-stat: AverageBacktrackAmount=0
%%%mzn-stat: AverageLbd=9.72665916760405
%%%mzn-stat: 2AutonomousSearchNumBackupCalled=5411
%%%mzn-stat: 2AutonomousSearchNumPredicatesRemoved=0
%%%mzn-stat: 2AutonomousSearchNumCalls=5422
%%%mzn-stat: 2AutonomousSearchNumPredicatesAdded=2543
%%%mzn-stat: 2AutonomousSearchAverageSizeOfHeap=1.9948358539284397
%%%mzn-stat: 2AutonomousSearchNumAssignedPredicatesEncountered=10816
%%%mzn-stat-end
maxleg = 289;
succ = array1d(1..50,[4, 5, 8, 10, 1, 9, 2, 11, 18, 21, 15, 14, 20, 7, 13, 3, 27, 28, 16, 31, 41, 6, 22, 23, 37, 12, 36, 25, 46, 24, 50, 17, 42, 26, 30, 29, 38, 39, 44, 45, 43, 32, 35, 47, 34, 48, 49, 40, 19, 33]);
% time elapsed: 3.31 s
----------
%%%mzn-stat: initTime=0.022361602
%%%mzn-stat: objective=286
%%%mzn-stat: nodes=14922
%%%mzn-stat: restarts=0
%%%mzn-stat: peakDepth=639
%%%mzn-stat: solveTime=0.39886397
%%%mzn-stat: variables=1162
%%%mzn-stat: propagators=853
%%%mzn-stat: failures=1378
%%%mzn-stat: propagations=107165
%%%mzn-stat: nogoods=1378
%%%mzn-stat: numAtomicConstraintsPropagated=0
%%%mzn-stat: allDifferentNumber1TotalHallSetSize=8581
%%%mzn-stat: allDifferentNumber1NumberOfConflicts=1079
%%%mzn-stat: allDifferentNumber1MaxHallSetSize=44
%%%mzn-stat: allDifferentNumber1PropagationsTotal=15294
%%%mzn-stat: allDifferentNumber1PropagationsThatFoundConflict=1079
%%%mzn-stat: circuitNumber2PropagationsThatFoundConflict=277
%%%mzn-stat: circuitNumber2TotalFixedEdgesAtConflict=12419
%%%mzn-stat: circuitNumber2NumberOfConflicts=277
%%%mzn-stat: circuitNumber2PropagationsThatPruned=697
%%%mzn-stat: circuitNumber2PropagationsTotal=9398
%%%mzn-stat: AverageConflictSize=14.377358490566039
%%%mzn-stat: NumUnitNogoodsLearned=0
%%%mzn-stat: AverageLearnedNogoodLength=21.41799709724238
%%%mzn-stat: AverageBacktrackAmount=0
%%%mzn-stat: AverageLbd=13.231494920174166
%%%mzn-stat: 2AutonomousSearchNumBackupCalled=5850
%%%mzn-stat: 2AutonomousSearchNumPredicatesRemoved=0
%%%mzn-stat: 2AutonomousSearchNumCalls=5862
%%%mzn-stat: 2AutonomousSearchNumPredicatesAdded=3681
%%%mzn-stat: 2AutonomousSearchAverageSizeOfHeap=2.142272262026612
%%%mzn-stat: 2AutonomousSearchNumAssignedPredicatesEncountered=12558
%%%mzn-stat-end
maxleg = 286;
succ = array1d(1..50,[4, 5, 8, 10, 1, 9, 2, 11, 18, 21, 15, 14, 20, 7, 16, 19, 27, 28, 31, 37, 41, 6, 22, 23, 43, 12, 36, 32, 46, 24, 50, 3, 42, 26, 30, 29, 25, 39, 44, 45, 38, 17, 35, 47, 34, 48, 49, 40, 13, 33]);
% time elapsed: 3.43 s
----------
%%%mzn-stat: initTime=0.022361602
%%%mzn-stat: objective=280
%%%mzn-stat: nodes=15469
%%%mzn-stat: restarts=0
%%%mzn-stat: peakDepth=639
%%%mzn-stat: solveTime=0.404808884
%%%mzn-stat: variables=1162
%%%mzn-stat: propagators=853
%%%mzn-stat: failures=1401
%%%mzn-stat: propagations=109889
%%%mzn-stat: nogoods=1401
%%%mzn-stat: numAtomicConstraintsPropagated=0
%%%mzn-stat: allDifferentNumber1TotalHallSetSize=8695
%%%mzn-stat: allDifferentNumber1NumberOfConflicts=1100
%%%mzn-stat: allDifferentNumber1MaxHallSetSize=44
%%%mzn-stat: allDifferentNumber1PropagationsTotal=15482
%%%mzn-stat: allDifferentNumber1PropagationsThatFoundConflict=1100
%%%mzn-stat: circuitNumber2PropagationsThatFoundConflict=278
%%%mzn-stat: circuitNumber2TotalFixedEdgesAtConflict=12466
%%%mzn-stat: circuitNumber2NumberOfConflicts=278
%%%mzn-stat: circuitNumber2PropagationsThatPruned=710
%%%mzn-stat: circuitNumber2PropagationsTotal=9518
%%%mzn-stat: AverageConflictSize=14.4796573875803
%%%mzn-stat: NumUnitNogoodsLearned=0
%%%mzn-stat: AverageLearnedNogoodLength=21.43112062812277
%%%mzn-stat: AverageBacktrackAmount=0
%%%mzn-stat: AverageLbd=13.162027123483226
%%%mzn-stat: 2AutonomousSearchNumBackupCalled=6276
%%%mzn-stat: 2AutonomousSearchNumPredicatesRemoved=0
%%%mzn-stat: 2AutonomousSearchNumCalls=6289
%%%mzn-stat: 2AutonomousSearchNumPredicatesAdded=4057
%%%mzn-stat: 2AutonomousSearchAverageSizeOfHeap=2.2987756400063604
%%%mzn-stat: 2AutonomousSearchNumAssignedPredicatesEncountered=14457
%%%mzn-stat-end
maxleg = 280;
succ = array1d(1..50,[4, 5, 8, 10, 1, 9, 2, 11, 18, 21, 15, 14, 20, 7, 16, 19, 27, 28, 32, 3, 41, 6, 22, 23, 37, 12, 36, 33, 46, 24, 39, 42, 50, 26, 30, 29, 13, 25, 44, 45, 43, 17, 35, 49, 34, 48, 38, 40, 47, 31]);
% time elapsed: 3.44 s
----------
%%%mzn-stat: initTime=0.022361602
%%%mzn-stat: objective=277
%%%mzn-stat: nodes=19025
%%%mzn-stat: restarts=0
%%%mzn-stat: peakDepth=639
%%%mzn-stat: solveTime=0.928785128
%%%mzn-stat: variables=1162
%%%mzn-stat: propagators=853
%%%mzn-stat: failures=3422
%%%mzn-stat: propagations=200663
%%%mzn-stat: nogoods=3422
%%%mzn-stat: numAtomicConstraintsPropagated=0
%%%mzn-stat: allDifferentNumber1TotalHallSetSize=10451
%%%mzn-stat: allDifferentNumber1NumberOfConflicts=1459
%%%mzn-stat: allDifferentNumber1MaxHallSetSize=44
%%%mzn-stat: allDifferentNumber1PropagationsTotal=22793
%%%mzn-stat: allDifferentNumber1PropagationsThatFoundConflict=1459
%%%mzn-stat: circuitNumber2PropagationsThatFoundConflict=1890
%%%mzn-stat: circuitNumber2TotalFixedEdgesAtConflict=85325
%%%mzn-stat: circuitNumber2NumberOfConflicts=1890
%%%mzn-stat: circuitNumber2PropagationsThatPruned=1438
%%%mzn-stat: circuitNumber2PropagationsTotal=14303
%%%mzn-stat: AverageConflictSize=20.602571595558153
%%%mzn-stat: NumUnitNogoodsLearned=0
%%%mzn-stat: AverageLearnedNogoodLength=41.14991233196961
%%%mzn-stat: AverageBacktrackAmount=0
%%%mzn-stat: AverageLbd=20.185856224430157
%%%mzn-stat: 2AutonomousSearchNumBackupCalled=6682
%%%mzn-stat: 2AutonomousSearchNumPredicatesRemoved=0
%%%mzn-stat: 2AutonomousSearchNumCalls=6696
%%%mzn-stat: 2AutonomousSearchNumPredicatesAdded=5157
%%%mzn-stat: 2AutonomousSearchAverageSizeOfHeap=2.4508661887694148
%%%mzn-stat: 2AutonomousSearchNumAssignedPredicatesEncountered=16411
%%%mzn-stat-end
maxleg = 277;
succ = array1d(1..50,[4, 5, 8, 10, 1, 9, 2, 11, 18, 21, 15, 14, 20, 7, 16, 19, 27, 28, 33, 3, 41, 6, 22, 23, 43, 12, 36, 32, 46, 24, 39, 42, 50, 26, 30, 29, 13, 37, 44, 45, 38, 17, 35, 49, 34, 48, 25, 40, 47, 31]);
% time elapsed: 3.96 s
----------
%%%mzn-stat: initTime=0.022361602
%%%mzn-stat: objective=276
%%%mzn-stat: nodes=8428039
%%%mzn-stat: restarts=0
%%%mzn-stat: peakDepth=639
%%%mzn-stat: solveTime=1331.755067067
%%%mzn-stat: variables=1162
%%%mzn-stat: propagators=853
%%%mzn-stat: failures=4656885
%%%mzn-stat: propagations=220160860
%%%mzn-stat: nogoods=4656885
%%%mzn-stat: numAtomicConstraintsPropagated=0
%%%mzn-stat: allDifferentNumber1TotalHallSetSize=226335
%%%mzn-stat: allDifferentNumber1NumberOfConflicts=33409
%%%mzn-stat: allDifferentNumber1MaxHallSetSize=44
%%%mzn-stat: allDifferentNumber1PropagationsTotal=18128522
%%%mzn-stat: allDifferentNumber1PropagationsThatFoundConflict=33409
%%%mzn-stat: circuitNumber2PropagationsThatFoundConflict=4009207
%%%mzn-stat: circuitNumber2TotalFixedEdgesAtConflict=180966866
%%%mzn-stat: circuitNumber2NumberOfConflicts=4009207
%%%mzn-stat: circuitNumber2PropagationsThatPruned=1776772
%%%mzn-stat: circuitNumber2PropagationsTotal=12248116
%%%mzn-stat: AverageConflictSize=31.219659063945105
%%%mzn-stat: NumUnitNogoodsLearned=0
%%%mzn-stat: AverageLearnedNogoodLength=43.59222355716321
%%%mzn-stat: AverageBacktrackAmount=0
%%%mzn-stat: AverageLbd=20.624551175302805
%%%mzn-stat: 2AutonomousSearchNumBackupCalled=7086
%%%mzn-stat: 2AutonomousSearchNumPredicatesRemoved=0
%%%mzn-stat: 2AutonomousSearchNumCalls=7101
%%%mzn-stat: 2AutonomousSearchNumPredicatesAdded=7311
%%%mzn-stat: 2AutonomousSearchAverageSizeOfHeap=2.67680608365019
%%%mzn-stat: 2AutonomousSearchNumAssignedPredicatesEncountered=19008
%%%mzn-stat-end
maxleg = 276;
succ = array1d(1..50,[4, 5, 8, 10, 1, 9, 2, 11, 18, 21, 15, 14, 20, 7, 16, 19, 27, 30, 28, 31, 41, 6, 22, 23, 37, 12, 36, 32, 46, 26, 50, 42, 3, 43, 24, 29, 13, 39, 44, 45, 38, 17, 35, 49, 34, 48, 25, 40, 47, 33]);
% time elapsed: 1334.79 s
----------
=====ERROR=====
% time elapsed: 1486.50 s
